results/x-long/X-n106-k14.vrp_seed-10.out
26378	1198
