results/x-long/X-n106-k14.vrp_seed-10.vrp.sol
Route #1: 62 26 90 24 102 92 52
Route #2: 59 89 30 42 23 3 32 73 35
Route #3: 1 104 12 101 28 93 103 45
Route #4: 25 47 61 80 65 38 95 68
Route #5: 9 46 71 79 37 27 19 78
Route #6: 22 33
Route #7: 49 21 85 54 13 40 31 63 82
Route #8: 7 75 84 66 97 43 53 44
Route #9: 39 50 81 6 70 4 98 55
Route #10: 83 48 8 36 91 88 58 14
Route #11: 57 94 64 105 69 17 2 77 67
Route #12: 56 20 16 10 41 18 86
Route #13: 5 15 76 87 60 51 100
Route #14: 96 29 72 34 11 99 74
Cost 26378.000000